67485725775042686285013,14,1,2,05,11,1,2,09,7,1,2,03,12,1,2,08,14,1,2,03,3,1,2,010,3,1,2,011,13,1,2,07,13,1,2,03,1,1,2,08,9,1,2,06,10,1,2,09,6,1,2,012,15,1,2,07,5,1,2,03,14,1,2,011,2,1,2,09,11,1,2,03,10,1,2,010,4,1,2,08,8,1,2,011,11,1,2,06,12,1,2,05,2,1,2,014,1,1,2,01,11,1,2,01,15,1,2,011,8,1,2,09,6,1,2,01,12,1,2,05,10,1,2,015,11,1,2,02,14,1,2,02,13,1,2,02,3,1,2,015,14,1,2,06,1,1,2,015,1,1,2,02,2,1,2,09,2,1,2,015,14,1,2,013,14,1,2,04,10,1,2,09,3,1,2,014,15,1,2,05,5,1,2,014,14,1,2,07,10,1,2,06,15,1,2,06,7,1,2,0